NAME : H-n15-k5
CAPACITY : 960
NODE_COORD_SECTION
1   336   285
2   390   490
3   165   284
4   246   477
5   356   266
6   188   415
7   326   434
8   229   290
9   89   69
10   112   403
11   308   229
12   89    187
13   381   303
14   406   347
15   153   147
DEMAND_SECTION
1   0
2   19
3   60
4   58
5   54
6   90
7   8
8   24
9   73
10   94
11   82
12   62
13   74
14   16
15   48
DEPOT_SECTION
    1
    -1
EOF
